c graph2
p edge 15 36
e 1 3
e 2 7
e 3 5
e 4 7
e 5 12
e 6 15
e 7 8
e 8 8
e 9 15
e 10 12
e 11 7
e 12 13
e 13 15
e 14 1
e 15 8
e 8 6
e 11 14
e 10 7
e 1 1
e 7 9
e 13 5
e 4 8
e 3 13
e 12 12
e 11 11
e 2 15
e 14 10
e 13 6
e 5 1
e 11 3
e 11 9
e 14 13
e 10 1
e 6 14
e 13 11
e 3 3
